c FILE: huck.col
c Translated from Stanford GraphBase File: huck.gb
c Stanford GraphBase ID: book(?huck?,74,0,1,43,0,0,0)
p edge 74 602
e 1 44
e 1 4
e 1 69
e 1 59
e 1 13
e 1 29
e 1 40
e 1 11
e 1 50
e 1 5
e 1 25
e 1 10
e 1 63
e 1 22
e 1 9
e 1 55
e 1 72
e 1 49
e 2 46
e 2 55
e 2 62
e 2 4
e 2 74
e 2 43
e 2 51
e 2 57
e 2 41
e 3 53
e 3 52
e 3 55
e 3 9
e 4 69
e 4 1
e 4 9
e 4 22
e 4 49
e 4 63
e 4 68
e 4 60
e 4 19
e 4 56
e 4 27
e 4 46
e 4 55
e 4 2
e 4 73
e 4 43
e 4 62
e 4 47
e 4 67
e 4 12
e 4 57
e 4 32
e 4 71
e 4 45
e 4 41
e 5 59
e 5 13
e 5 29
e 5 40
e 5 11
e 5 50
e 5 25
e 5 49
e 5 1
e 5 55
e 6 64
e 6 23
e 6 21
e 6 17
e 6 34
e 6 39
e 6 20
e 6 55
e 7 70
e 8 14
e 8 44
e 8 9
e 8 52
e 8 38
e 8 31
e 8 18
e 9 69
e 9 4
e 9 72
e 9 10
e 9 66
e 9 1
e 9 49
e 9 8
e 9 14
e 9 44
e 9 38
e 9 31
e 9 18
e 9 3
e 9 53
e 9 52
e 9 22
e 9 55
e 10 72
e 10 1
e 10 49
e 10 55
e 10 9
e 11 59
e 11 13
e 11 29
e 11 40
e 11 50
e 11 5
e 11 25
e 11 49
e 11 1
e 11 55
e 12 55
e 12 73
e 12 43
e 12 62
e 12 4
e 12 47
e 12 67
e 12 57
e 12 41
e 13 59
e 13 29
e 13 40
e 13 11
e 13 50
e 13 5
e 13 25
e 13 49
e 13 1
e 13 55
e 14 8
e 14 44
e 14 9
e 14 52
e 14 38
e 14 31
e 14 18
e 15 22
e 15 55
e 16 65
e 16 55
e 17 28
e 17 30
e 17 64
e 17 23
e 17 21
e 17 6
e 17 34
e 17 39
e 17 20
e 17 55
e 18 22
e 18 8
e 18 14
e 18 44
e 18 9
e 18 52
e 18 38
e 18 24
e 18 31
e 18 55
e 19 68
e 19 55
e 19 60
e 19 73
e 19 4
e 19 56
e 19 27
e 19 57
e 19 41
e 20 64
e 20 23
e 20 21
e 20 17
e 20 6
e 20 34
e 20 39
e 20 55
e 21 64
e 21 23
e 21 17
e 21 6
e 21 34
e 21 39
e 21 20
e 21 55
e 22 18
e 22 44
e 22 69
e 22 49
e 22 4
e 22 66
e 22 63
e 22 1
e 22 61
e 22 26
e 22 57
e 22 41
e 22 15
e 22 42
e 22 55
e 22 9
e 23 30
e 23 64
e 23 21
e 23 17
e 23 6
e 23 34
e 23 39
e 23 20
e 23 55
e 24 18
e 24 31
e 24 42
e 24 55
e 25 59
e 25 13
e 25 29
e 25 40
e 25 11
e 25 50
e 25 5
e 25 49
e 25 1
e 25 55
e 26 22
e 27 68
e 27 55
e 27 60
e 27 19
e 27 73
e 27 57
e 27 41
e 27 4
e 27 56
e 27 62
e 28 17
e 29 59
e 29 13
e 29 40
e 29 11
e 29 50
e 29 5
e 29 25
e 29 49
e 29 1
e 29 55
e 30 23
e 30 55
e 30 17
e 31 8
e 31 14
e 31 44
e 31 9
e 31 52
e 31 38
e 31 24
e 31 18
e 31 55
e 32 4
e 32 71
e 33 49
e 34 64
e 34 23
e 34 21
e 34 17
e 34 6
e 34 39
e 34 20
e 34 55
e 35 48
e 35 58
e 36 60
e 36 55
e 36 57
e 36 41
e 37 72
e 37 49
e 38 8
e 38 14
e 38 44
e 38 9
e 38 52
e 38 31
e 38 18
e 39 64
e 39 23
e 39 21
e 39 17
e 39 6
e 39 34
e 39 20
e 39 55
e 40 59
e 40 13
e 40 29
e 40 11
e 40 50
e 40 5
e 40 25
e 40 49
e 40 1
e 40 55
e 41 68
e 41 60
e 41 19
e 41 73
e 41 56
e 41 27
e 41 46
e 41 2
e 41 74
e 41 43
e 41 51
e 41 62
e 41 47
e 41 67
e 41 12
e 41 36
e 41 4
e 41 57
e 41 22
e 41 55
e 42 22
e 42 55
e 42 24
e 43 47
e 43 67
e 43 12
e 43 73
e 43 4
e 43 2
e 43 74
e 43 51
e 43 57
e 43 41
e 44 22
e 44 1
e 44 55
e 44 49
e 44 8
e 44 14
e 44 9
e 44 52
e 44 38
e 44 31
e 44 18
e 45 4
e 45 71
e 46 55
e 46 62
e 46 4
e 46 57
e 46 41
e 46 2
e 47 55
e 47 73
e 47 43
e 47 62
e 47 4
e 47 67
e 47 12
e 47 57
e 47 41
e 48 35
e 48 58
e 49 44
e 49 22
e 49 69
e 49 59
e 49 13
e 49 29
e 49 40
e 49 11
e 49 50
e 49 5
e 49 25
e 49 4
e 49 33
e 49 10
e 49 9
e 49 37
e 49 1
e 49 55
e 49 72
e 50 59
e 50 13
e 50 29
e 50 40
e 50 11
e 50 5
e 50 25
e 50 49
e 50 1
e 50 55
e 51 2
e 51 74
e 51 43
e 51 57
e 51 41
e 52 8
e 52 14
e 52 44
e 52 38
e 52 31
e 52 18
e 52 3
e 52 53
e 52 55
e 52 9
e 53 3
e 53 52
e 53 55
e 53 9
e 54 55
e 55 44
e 55 59
e 55 13
e 55 29
e 55 40
e 55 11
e 55 50
e 55 5
e 55 25
e 55 69
e 55 10
e 55 66
e 55 1
e 55 72
e 55 49
e 55 68
e 55 60
e 55 19
e 55 73
e 55 56
e 55 27
e 55 46
e 55 4
e 55 2
e 55 62
e 55 47
e 55 67
e 55 12
e 55 36
e 55 57
e 55 41
e 55 15
e 55 30
e 55 64
e 55 23
e 55 21
e 55 17
e 55 6
e 55 34
e 55 39
e 55 20
e 55 65
e 55 16
e 55 54
e 55 18
e 55 31
e 55 3
e 55 53
e 55 52
e 55 22
e 55 42
e 55 24
e 55 9
e 56 68
e 56 55
e 56 60
e 56 19
e 56 73
e 56 57
e 56 41
e 56 4
e 56 27
e 57 68
e 57 60
e 57 19
e 57 73
e 57 56
e 57 27
e 57 46
e 57 2
e 57 74
e 57 43
e 57 51
e 57 62
e 57 47
e 57 67
e 57 12
e 57 36
e 57 4
e 57 41
e 57 22
e 57 55
e 58 35
e 58 48
e 59 13
e 59 29
e 59 40
e 59 11
e 59 50
e 59 5
e 59 25
e 59 49
e 59 1
e 59 55
e 60 36
e 60 68
e 60 55
e 60 19
e 60 73
e 60 4
e 60 56
e 60 27
e 60 57
e 60 41
e 61 22
e 62 46
e 62 2
e 62 55
e 62 4
e 62 47
e 62 67
e 62 12
e 62 57
e 62 41
e 62 27
e 63 4
e 63 1
e 63 22
e 64 23
e 64 21
e 64 17
e 64 6
e 64 34
e 64 39
e 64 20
e 64 55
e 65 16
e 65 55
e 66 22
e 66 55
e 66 9
e 67 55
e 67 73
e 67 43
e 67 62
e 67 4
e 67 47
e 67 12
e 67 57
e 67 41
e 68 55
e 68 60
e 68 19
e 68 73
e 68 4
e 68 56
e 68 27
e 68 57
e 68 41
e 69 4
e 69 22
e 69 9
e 69 1
e 69 49
e 69 55
e 70 7
e 71 32
e 71 4
e 71 45
e 72 10
e 72 9
e 72 37
e 72 1
e 72 55
e 72 49
e 73 68
e 73 55
e 73 60
e 73 19
e 73 56
e 73 27
e 73 57
e 73 41
e 73 47
e 73 67
e 73 12
e 73 43
e 73 4
e 74 2
e 74 43
e 74 51
e 74 57
e 74 41